c CNF
c from Selman's wff generator
p cnf 200  1500
1.0 190 -96 0
1.0 -196 -148 0
1.0 30 35 0
1.0 -19 2 0
1.0 -73 -32 0
1.0 66 -106 0
1.0 -78 60 0
1.0 -126 -187 0
1.0 82 142 0
1.0 89 -17 0
1.0 -52 158 0
1.0 -159 137 0
1.0 -168 110 0
1.0 -16 17 0
1.0 -76 192 0
1.0 -179 29 0
1.0 -171 143 0
1.0 -160 196 0
1.0 153 -132 0
1.0 -68 36 0
1.0 145 -124 0
1.0 140 65 0
1.0 56 171 0
1.0 200 -134 0
1.0 77 31 0
1.0 26 -6 0
1.0 137 127 0
1.0 162 -34 0
1.0 158 108 0
1.0 -172 121 0
1.0 92 129 0
1.0 63 -155 0
1.0 -185 89 0
1.0 -94 22 0
1.0 148 -80 0
1.0 114 74 0
1.0 -181 -84 0
1.0 -5 80 0
1.0 -8 40 0
1.0 194 -46 0
1.0 -134 185 0
1.0 7 -178 0
1.0 58 -91 0
1.0 164 -80 0
1.0 164 -8 0
1.0 87 74 0
1.0 -114 -48 0
1.0 94 175 0
1.0 160 -74 0
1.0 -52 -110 0
1.0 200 -183 0
1.0 -63 120 0
1.0 -127 4 0
1.0 -78 -56 0
1.0 104 -73 0
1.0 48 182 0
1.0 -56 -76 0
1.0 185 -92 0
1.0 -74 -94 0
1.0 -13 -57 0
1.0 -60 -155 0
1.0 -10 -61 0
1.0 -133 -24 0
1.0 -5 133 0
1.0 -8 -159 0
1.0 -50 -181 0
1.0 75 126 0
1.0 182 20 0
1.0 -175 -179 0
1.0 39 -105 0
1.0 -128 -7 0
1.0 -140 -138 0
1.0 -96 -159 0
1.0 140 117 0
1.0 -43 127 0
1.0 147 -127 0
1.0 -105 -43 0
1.0 -147 3 0
1.0 10 -67 0
1.0 5 -199 0
1.0 158 35 0
1.0 -152 -114 0
1.0 41 -11 0
1.0 -137 84 0
1.0 -126 14 0
1.0 -16 101 0
1.0 -168 -153 0
1.0 152 -68 0
1.0 103 118 0
1.0 32 115 0
1.0 125 66 0
1.0 -149 168 0
1.0 -181 -88 0
1.0 188 -93 0
1.0 -45 -193 0
1.0 -60 -199 0
1.0 117 -109 0
1.0 23 -64 0
1.0 129 80 0
1.0 -47 110 0
1.0 197 -98 0
1.0 -190 43 0
1.0 35 67 0
1.0 66 -134 0
1.0 -42 73 0
1.0 136 152 0
1.0 -31 19 0
1.0 -128 -94 0
1.0 -191 -127 0
1.0 170 49 0
1.0 115 -46 0
1.0 -179 155 0
1.0 28 -94 0
1.0 45 97 0
1.0 -115 169 0
1.0 -62 57 0
1.0 184 -76 0
1.0 -124 48 0
1.0 93 55 0
1.0 9 182 0
1.0 -75 -178 0
1.0 -74 -25 0
1.0 194 146 0
1.0 -2 -196 0
1.0 -72 -139 0
1.0 186 93 0
1.0 -147 -52 0
1.0 -34 -42 0
1.0 20 190 0
1.0 15 19 0
1.0 165 -110 0
1.0 -106 -169 0
1.0 -107 88 0
1.0 -180 -5 0
1.0 56 121 0
1.0 -163 -74 0
1.0 64 23 0
1.0 42 154 0
1.0 -64 -148 0
1.0 -116 122 0
1.0 -9 -116 0
1.0 -120 -86 0
1.0 7 -198 0
1.0 -72 -62 0
1.0 85 -25 0
1.0 -178 98 0
1.0 45 -103 0
1.0 -25 155 0
1.0 71 -96 0
1.0 -182 -137 0
1.0 -135 31 0
1.0 -92 -107 0
1.0 -131 -153 0
1.0 -50 34 0
1.0 136 -160 0
1.0 -114 -34 0
1.0 -130 -15 0
1.0 151 139 0
1.0 170 55 0
1.0 161 32 0
1.0 -184 140 0
1.0 -173 -150 0
1.0 109 180 0
1.0 14 -61 0
1.0 75 179 0
1.0 -118 152 0
1.0 -6 -2 0
1.0 34 186 0
1.0 125 58 0
1.0 7 -176 0
1.0 -155 -73 0
1.0 -134 142 0
1.0 121 164 0
1.0 -116 -145 0
1.0 147 -73 0
1.0 -58 -145 0
1.0 3 46 0
1.0 -21 -83 0
1.0 -155 60 0
1.0 2 -54 0
1.0 -18 -130 0
1.0 74 84 0
1.0 -156 142 0
1.0 -87 196 0
1.0 41 74 0
1.0 156 -21 0
1.0 -81 181 0
1.0 35 94 0
1.0 -23 163 0
1.0 -47 40 0
1.0 181 116 0
1.0 -111 -11 0
1.0 85 54 0
1.0 -74 -51 0
1.0 31 149 0
1.0 -43 40 0
1.0 -3 102 0
1.0 142 -78 0
1.0 -193 -69 0
1.0 80 -146 0
1.0 199 69 0
1.0 119 -153 0
1.0 101 -64 0
1.0 104 -130 0
1.0 -32 -170 0
1.0 47 9 0
1.0 -77 -85 0
1.0 -30 199 0
1.0 -67 -121 0
1.0 -74 -129 0
1.0 -192 147 0
1.0 77 -125 0
1.0 94 -158 0
1.0 -167 176 0
1.0 -60 124 0
1.0 -123 -116 0
1.0 -37 -20 0
1.0 148 -107 0
1.0 54 -2 0
1.0 127 37 0
1.0 -195 -119 0
1.0 95 -142 0
1.0 66 -1 0
1.0 -117 -161 0
1.0 180 -150 0
1.0 57 -149 0
1.0 151 102 0
1.0 139 -79 0
1.0 198 59 0
1.0 1 98 0
1.0 98 89 0
1.0 -50 30 0
1.0 -179 32 0
1.0 -180 -24 0
1.0 126 187 0
1.0 -66 105 0
1.0 -164 -92 0
1.0 189 1 0
1.0 -90 -82 0
1.0 -111 70 0
1.0 -101 126 0
1.0 150 72 0
1.0 -59 -19 0
1.0 -123 137 0
1.0 29 141 0
1.0 -141 78 0
1.0 -160 7 0
1.0 -76 -138 0
1.0 63 86 0
1.0 157 69 0
1.0 -87 27 0
1.0 164 -125 0
1.0 66 144 0
1.0 22 -115 0
1.0 121 -5 0
1.0 -142 11 0
1.0 96 31 0
1.0 99 -104 0
1.0 -131 8 0
1.0 132 -90 0
1.0 34 98 0
1.0 13 -40 0
1.0 -44 -87 0
1.0 -98 -103 0
1.0 133 5 0
1.0 109 115 0
1.0 -122 11 0
1.0 101 -22 0
1.0 -119 -55 0
1.0 94 -24 0
1.0 -111 194 0
1.0 97 111 0
1.0 116 48 0
1.0 162 77 0
1.0 -88 -198 0
1.0 -20 -188 0
1.0 42 -110 0
1.0 133 134 0
1.0 128 195 0
1.0 106 53 0
1.0 100 113 0
1.0 -189 110 0
1.0 108 -82 0
1.0 69 -185 0
1.0 94 134 0
1.0 68 -119 0
1.0 114 122 0
1.0 174 71 0
1.0 -183 -85 0
1.0 194 -79 0
1.0 160 112 0
1.0 -96 -92 0
1.0 26 185 0
1.0 104 88 0
1.0 9 -106 0
1.0 176 -75 0
1.0 -159 -188 0
1.0 66 178 0
1.0 89 -81 0
1.0 -172 -192 0
1.0 177 192 0
1.0 79 177 0
1.0 83 132 0
1.0 6 -124 0
1.0 -112 -148 0
1.0 125 171 0
1.0 -51 55 0
1.0 47 174 0
1.0 -166 110 0
1.0 -87 -198 0
1.0 130 -200 0
1.0 124 44 0
1.0 191 -17 0
1.0 -187 14 0
1.0 69 -128 0
1.0 -102 80 0
1.0 -189 39 0
1.0 37 -42 0
1.0 -42 -70 0
1.0 -114 -200 0
1.0 17 10 0
1.0 24 150 0
1.0 77 -100 0
1.0 179 -144 0
1.0 183 155 0
1.0 -196 86 0
1.0 156 86 0
1.0 -86 -200 0
1.0 -10 193 0
1.0 -142 145 0
1.0 -44 131 0
1.0 -74 42 0
1.0 197 -32 0
1.0 117 61 0
1.0 -147 30 0
1.0 -30 114 0
1.0 107 39 0
1.0 183 196 0
1.0 127 64 0
1.0 106 -39 0
1.0 71 -132 0
1.0 192 -123 0
1.0 -152 -200 0
1.0 114 103 0
1.0 141 -93 0
1.0 -89 135 0
1.0 -199 15 0
1.0 -72 5 0
1.0 -98 96 0
1.0 -155 -132 0
1.0 101 154 0
1.0 -174 89 0
1.0 -156 68 0
1.0 18 170 0
1.0 185 192 0
1.0 197 162 0
1.0 -58 51 0
1.0 -182 86 0
1.0 39 36 0
1.0 124 29 0
1.0 -96 -33 0
1.0 -3 -59 0
1.0 50 183 0
1.0 -145 99 0
1.0 150 -54 0
1.0 139 -182 0
1.0 -18 -99 0
1.0 128 68 0
1.0 -101 -191 0
1.0 49 65 0
1.0 -48 -132 0
1.0 -31 -83 0
1.0 -137 8 0
1.0 190 126 0
1.0 -25 -41 0
1.0 -109 169 0
1.0 -159 113 0
1.0 -177 3 0
1.0 134 -49 0
1.0 -132 11 0
1.0 -18 56 0
1.0 182 194 0
1.0 -35 -162 0
1.0 -130 135 0
1.0 47 67 0
1.0 69 200 0
1.0 -49 -65 0
1.0 75 111 0
1.0 167 -189 0
1.0 -182 114 0
1.0 -76 113 0
1.0 48 112 0
1.0 -179 188 0
1.0 188 166 0
1.0 30 -17 0
1.0 -127 62 0
1.0 50 96 0
1.0 10 195 0
1.0 108 -6 0
1.0 118 183 0
1.0 -171 -166 0
1.0 -132 -193 0
1.0 9 -8 0
1.0 70 -62 0
1.0 -158 -69 0
1.0 64 -197 0
1.0 -2 -142 0
1.0 124 174 0
1.0 140 157 0
1.0 149 -45 0
1.0 53 -98 0
1.0 159 -121 0
1.0 189 191 0
1.0 187 -135 0
1.0 -76 -149 0
1.0 122 121 0
1.0 -78 145 0
1.0 -190 165 0
1.0 -62 75 0
1.0 -195 -5 0
1.0 196 -19 0
1.0 -154 59 0
1.0 7 -77 0
1.0 -198 122 0
1.0 -66 123 0
1.0 88 -84 0
1.0 -158 -62 0
1.0 -67 106 0
1.0 125 172 0
1.0 -31 14 0
1.0 -91 135 0
1.0 -56 -157 0
1.0 -79 -65 0
1.0 -148 -74 0
1.0 136 86 0
1.0 192 -193 0
1.0 -165 -109 0
1.0 123 101 0
1.0 -35 198 0
1.0 154 66 0
1.0 -130 189 0
1.0 -63 -115 0
1.0 1 -40 0
1.0 -33 -65 0
1.0 -174 103 0
1.0 -3 23 0
1.0 -20 -11 0
1.0 76 140 0
1.0 128 -5 0
1.0 -119 -65 0
1.0 -104 -188 0
1.0 -53 20 0
1.0 -122 -124 0
1.0 -147 -30 0
1.0 -40 -90 0
1.0 -29 -145 0
1.0 -149 4 0
1.0 -69 -133 0
1.0 -121 -98 0
1.0 -118 41 0
1.0 -165 -119 0
1.0 148 -126 0
1.0 15 -104 0
1.0 -25 198 0
1.0 144 175 0
1.0 -161 70 0
1.0 -178 169 0
1.0 -167 16 0
1.0 179 -93 0
1.0 -169 -21 0
1.0 -125 -161 0
1.0 -159 -50 0
1.0 -24 -75 0
1.0 144 -173 0
1.0 -142 -19 0
1.0 -35 122 0
1.0 -14 -25 0
1.0 -46 -35 0
1.0 -196 -108 0
1.0 158 -96 0
1.0 -171 -33 0
1.0 6 -9 0
1.0 28 176 0
1.0 97 -47 0
1.0 72 -191 0
1.0 26 59 0
1.0 -167 -5 0
1.0 -101 30 0
1.0 -62 71 0
1.0 79 -22 0
1.0 -197 67 0
1.0 114 -41 0
1.0 -32 98 0
1.0 156 -188 0
1.0 193 53 0
1.0 -82 -151 0
1.0 21 150 0
1.0 171 -23 0
1.0 90 172 0
1.0 -12 66 0
1.0 -163 -88 0
1.0 76 179 0
1.0 -31 -87 0
1.0 37 124 0
1.0 -74 65 0
1.0 87 -161 0
1.0 -132 -73 0
1.0 -139 -165 0
1.0 53 -87 0
1.0 -65 61 0
1.0 147 -156 0
1.0 80 -63 0
1.0 -128 198 0
1.0 -159 9 0
1.0 82 169 0
1.0 -134 -21 0
1.0 -107 -141 0
1.0 1 -110 0
1.0 -65 -75 0
1.0 138 172 0
1.0 170 -94 0
1.0 103 -69 0
1.0 38 -51 0
1.0 -71 -126 0
1.0 -67 71 0
1.0 180 17 0
1.0 -92 146 0
1.0 118 85 0
1.0 179 172 0
1.0 41 32 0
1.0 82 -70 0
1.0 -196 5 0
1.0 -76 80 0
1.0 97 -144 0
1.0 90 87 0
1.0 171 -109 0
1.0 80 -109 0
1.0 -140 95 0
1.0 -164 -47 0
1.0 52 -105 0
1.0 -185 150 0
1.0 93 -80 0
1.0 -166 -83 0
1.0 191 84 0
1.0 -193 -114 0
1.0 -9 -190 0
1.0 -37 128 0
1.0 33 152 0
1.0 101 -196 0
1.0 -75 164 0
1.0 -47 166 0
1.0 -49 61 0
1.0 -175 -99 0
1.0 -89 -127 0
1.0 55 85 0
1.0 -36 -27 0
1.0 -23 1 0
1.0 -165 105 0
1.0 70 -114 0
1.0 -175 -156 0
1.0 -55 -133 0
1.0 60 -85 0
1.0 170 79 0
1.0 -106 -105 0
1.0 105 71 0
1.0 176 162 0
1.0 -76 127 0
1.0 -83 -123 0
1.0 56 -129 0
1.0 13 -147 0
1.0 -26 -31 0
1.0 135 130 0
1.0 -1 -83 0
1.0 44 -187 0
1.0 -114 -184 0
1.0 -107 -166 0
1.0 94 -13 0
1.0 160 -107 0
1.0 -137 77 0
1.0 -7 174 0
1.0 -56 17 0
1.0 4 -2 0
1.0 -185 187 0
1.0 153 46 0
1.0 -59 130 0
1.0 36 -42 0
1.0 -119 43 0
1.0 -153 -132 0
1.0 -114 -48 0
1.0 67 89 0
1.0 2 192 0
1.0 -44 -52 0
1.0 4 124 0
1.0 -127 182 0
1.0 -25 -90 0
1.0 -21 -86 0
1.0 134 -117 0
1.0 6 150 0
1.0 141 -58 0
1.0 -109 -159 0
1.0 -83 168 0
1.0 149 -123 0
1.0 -12 192 0
1.0 -77 94 0
1.0 11 17 0
1.0 166 -63 0
1.0 121 77 0
1.0 -35 -49 0
1.0 -16 -101 0
1.0 -24 179 0
1.0 170 85 0
1.0 179 -35 0
1.0 52 67 0
1.0 -130 28 0
1.0 104 -15 0
1.0 63 23 0
1.0 124 -182 0
1.0 -161 -178 0
1.0 -63 50 0
1.0 85 -34 0
1.0 -101 35 0
1.0 63 -77 0
1.0 -91 -161 0
1.0 184 -162 0
1.0 143 -72 0
1.0 50 -35 0
1.0 -85 -10 0
1.0 -43 -182 0
1.0 -17 57 0
1.0 134 54 0
1.0 -15 -150 0
1.0 -111 8 0
1.0 -80 -159 0
1.0 194 189 0
1.0 198 193 0
1.0 -174 -150 0
1.0 7 -157 0
1.0 -10 114 0
1.0 64 -142 0
1.0 149 128 0
1.0 -87 183 0
1.0 -172 -196 0
1.0 189 -4 0
1.0 -154 -193 0
1.0 -149 -21 0
1.0 -135 -65 0
1.0 -6 -172 0
1.0 199 -182 0
1.0 -138 -100 0
1.0 -57 122 0
1.0 131 -84 0
1.0 37 174 0
1.0 -74 -30 0
1.0 -13 189 0
1.0 -160 -98 0
1.0 -79 171 0
1.0 -71 -93 0
1.0 -15 -73 0
1.0 157 -200 0
1.0 173 139 0
1.0 -169 -41 0
1.0 -29 -127 0
1.0 -24 -151 0
1.0 -122 -87 0
1.0 -179 -70 0
1.0 -143 105 0
1.0 105 6 0
1.0 -145 -141 0
1.0 182 108 0
1.0 -35 94 0
1.0 -45 -145 0
1.0 -31 80 0
1.0 150 77 0
1.0 -182 141 0
1.0 -147 83 0
1.0 23 88 0
1.0 195 98 0
1.0 192 12 0
1.0 156 -47 0
1.0 -127 162 0
1.0 -38 199 0
1.0 -140 160 0
1.0 -42 69 0
1.0 156 -180 0
1.0 -78 82 0
1.0 -94 66 0
1.0 113 109 0
1.0 -70 -33 0
1.0 -31 -85 0
1.0 45 31 0
1.0 -100 31 0
1.0 10 20 0
1.0 -102 -185 0
1.0 51 -62 0
1.0 171 81 0
1.0 -113 -118 0
1.0 -3 74 0
1.0 -105 169 0
1.0 200 86 0
1.0 106 65 0
1.0 50 53 0
1.0 115 48 0
1.0 -129 64 0
1.0 -182 -72 0
1.0 145 99 0
1.0 68 167 0
1.0 53 -112 0
1.0 -176 174 0
1.0 -27 -169 0
1.0 17 -187 0
1.0 -51 151 0
1.0 23 -171 0
1.0 70 -50 0
1.0 16 69 0
1.0 180 -82 0
1.0 -56 193 0
1.0 162 -105 0
1.0 -91 -51 0
1.0 -2 110 0
1.0 -81 -190 0
1.0 40 7 0
1.0 -75 92 0
1.0 174 151 0
1.0 -144 -190 0
1.0 95 -136 0
1.0 -187 -7 0
1.0 116 -100 0
1.0 -90 -2 0
1.0 -9 33 0
1.0 -125 108 0
1.0 -58 148 0
1.0 -138 38 0
1.0 174 -190 0
1.0 -197 -144 0
1.0 -43 -158 0
1.0 160 -54 0
1.0 87 44 0
1.0 -151 189 0
1.0 136 34 0
1.0 -72 116 0
1.0 106 -122 0
1.0 66 -152 0
1.0 110 123 0
1.0 177 100 0
1.0 143 87 0
1.0 -76 182 0
1.0 15 111 0
1.0 -27 -190 0
1.0 112 -137 0
1.0 88 -50 0
1.0 173 -124 0
1.0 23 -102 0
1.0 189 86 0
1.0 67 161 0
1.0 -72 160 0
1.0 150 100 0
1.0 37 -65 0
1.0 -115 122 0
1.0 46 186 0
1.0 87 48 0
1.0 -134 92 0
1.0 52 -14 0
1.0 174 -51 0
1.0 -151 -51 0
1.0 -116 21 0
1.0 -142 -31 0
1.0 17 -153 0
1.0 -1 -88 0
1.0 -180 117 0
1.0 -131 -17 0
1.0 67 175 0
1.0 26 -9 0
1.0 -29 -114 0
1.0 -144 -88 0
1.0 40 13 0
1.0 -101 42 0
1.0 -159 109 0
1.0 -125 -66 0
1.0 40 18 0
1.0 27 12 0
1.0 125 178 0
1.0 66 -184 0
1.0 -196 93 0
1.0 -135 120 0
1.0 -29 -87 0
1.0 -152 -174 0
1.0 192 154 0
1.0 165 64 0
1.0 -42 -99 0
1.0 82 188 0
1.0 -81 158 0
1.0 -78 -150 0
1.0 36 -89 0
1.0 -63 5 0
1.0 158 -36 0
1.0 100 -145 0
1.0 44 -172 0
1.0 159 60 0
1.0 17 177 0
1.0 126 -161 0
1.0 -50 -60 0
1.0 -65 127 0
1.0 -163 39 0
1.0 184 158 0
1.0 -130 51 0
1.0 -110 -156 0
1.0 133 180 0
1.0 140 -21 0
1.0 -81 -168 0
1.0 -95 68 0
1.0 -107 112 0
1.0 -70 -123 0
1.0 173 70 0
1.0 26 -13 0
1.0 193 -28 0
1.0 -49 -36 0
1.0 3 23 0
1.0 -90 -40 0
1.0 151 75 0
1.0 197 -4 0
1.0 74 106 0
1.0 119 -58 0
1.0 86 -72 0
1.0 107 -165 0
1.0 187 135 0
1.0 174 -163 0
1.0 -38 160 0
1.0 163 4 0
1.0 -54 -136 0
1.0 -192 97 0
1.0 -140 -131 0
1.0 193 -79 0
1.0 86 168 0
1.0 40 -24 0
1.0 -168 -120 0
1.0 -123 -199 0
1.0 134 -186 0
1.0 -83 84 0
1.0 -15 157 0
1.0 -36 -17 0
1.0 -184 33 0
1.0 57 56 0
1.0 -175 185 0
1.0 184 -155 0
1.0 140 162 0
1.0 46 29 0
1.0 186 170 0
1.0 -187 -199 0
1.0 -31 111 0
1.0 -166 -17 0
1.0 1 -67 0
1.0 -21 -113 0
1.0 -74 -143 0
1.0 -171 -26 0
1.0 -196 -45 0
1.0 -43 118 0
1.0 -29 -146 0
1.0 -162 -72 0
1.0 -138 -174 0
1.0 -87 -48 0
1.0 190 -100 0
1.0 -126 -58 0
1.0 -102 -93 0
1.0 11 54 0
1.0 199 -178 0
1.0 -49 -169 0
1.0 -143 69 0
1.0 -116 -61 0
1.0 161 68 0
1.0 125 182 0
1.0 -75 108 0
1.0 -162 -188 0
1.0 -165 158 0
1.0 -127 44 0
1.0 112 142 0
1.0 -3 -86 0
1.0 154 199 0
1.0 -181 54 0
1.0 -162 -76 0
1.0 63 66 0
1.0 23 -5 0
1.0 48 -38 0
1.0 -179 -116 0
1.0 -1 -121 0
1.0 119 191 0
1.0 -45 138 0
1.0 -13 95 0
1.0 -160 -14 0
1.0 -18 141 0
1.0 178 -151 0
1.0 -66 13 0
1.0 133 80 0
1.0 -71 -54 0
1.0 -191 105 0
1.0 199 -52 0
1.0 -66 180 0
1.0 -121 74 0
1.0 25 174 0
1.0 -186 -192 0
1.0 -71 -177 0
1.0 30 120 0
1.0 24 178 0
1.0 -29 101 0
1.0 -81 124 0
1.0 198 126 0
1.0 -99 155 0
1.0 146 67 0
1.0 -43 173 0
1.0 93 -12 0
1.0 -190 115 0
1.0 -15 121 0
1.0 45 89 0
1.0 15 -197 0
1.0 -151 174 0
1.0 -40 2 0
1.0 -175 68 0
1.0 -80 45 0
1.0 159 -123 0
1.0 43 200 0
1.0 -89 -166 0
1.0 162 -191 0
1.0 165 14 0
1.0 15 -120 0
1.0 188 39 0
1.0 -84 39 0
1.0 161 25 0
1.0 24 -85 0
1.0 50 18 0
1.0 -9 -31 0
1.0 -45 133 0
1.0 52 63 0
1.0 -102 -103 0
1.0 141 -45 0
1.0 -69 43 0
1.0 127 -193 0
1.0 -11 21 0
1.0 -52 113 0
1.0 -45 171 0
1.0 -33 -1 0
1.0 -103 44 0
1.0 -89 -147 0
1.0 189 -47 0
1.0 40 56 0
1.0 76 -81 0
1.0 194 63 0
1.0 -33 176 0
1.0 177 70 0
1.0 -114 120 0
1.0 -67 66 0
1.0 -112 -9 0
1.0 -64 -1 0
1.0 -71 -67 0
1.0 -89 175 0
1.0 109 -33 0
1.0 33 -120 0
1.0 42 -94 0
1.0 52 74 0
1.0 -45 -170 0
1.0 171 64 0
1.0 -130 190 0
1.0 165 142 0
1.0 174 123 0
1.0 -42 143 0
1.0 -36 176 0
1.0 -50 9 0
1.0 178 -72 0
1.0 -135 54 0
1.0 44 164 0
1.0 105 164 0
1.0 86 -131 0
1.0 74 -40 0
1.0 -16 1 0
1.0 -9 -145 0
1.0 -17 -160 0
1.0 14 122 0
1.0 85 -98 0
1.0 61 -144 0
1.0 75 -149 0
1.0 189 84 0
1.0 84 54 0
1.0 199 27 0
1.0 -187 -11 0
1.0 132 182 0
1.0 80 -120 0
1.0 63 -71 0
1.0 19 160 0
1.0 44 -142 0
1.0 196 -79 0
1.0 106 98 0
1.0 108 176 0
1.0 158 147 0
1.0 -66 -60 0
1.0 130 -63 0
1.0 -23 151 0
1.0 -92 166 0
1.0 44 -14 0
1.0 111 91 0
1.0 67 132 0
1.0 78 -113 0
1.0 172 -37 0
1.0 100 -138 0
1.0 -88 -5 0
1.0 170 182 0
1.0 -195 -149 0
1.0 -40 -3 0
1.0 -135 180 0
1.0 -93 191 0
1.0 -28 -27 0
1.0 165 16 0
1.0 20 -37 0
1.0 18 99 0
1.0 -48 165 0
1.0 -168 -40 0
1.0 -19 -123 0
1.0 -114 -69 0
1.0 96 142 0
1.0 -157 -117 0
1.0 -153 -144 0
1.0 -43 169 0
1.0 -133 -98 0
1.0 138 -170 0
1.0 93 117 0
1.0 -185 43 0
1.0 -184 -15 0
1.0 -131 53 0
1.0 196 83 0
1.0 -51 -35 0
1.0 133 105 0
1.0 75 -87 0
1.0 -3 -93 0
1.0 136 -120 0
1.0 135 8 0
1.0 -61 176 0
1.0 58 -1 0
1.0 36 -23 0
1.0 127 174 0
1.0 -61 63 0
1.0 155 141 0
1.0 60 -118 0
1.0 126 -68 0
1.0 43 8 0
1.0 9 136 0
1.0 158 98 0
1.0 72 -48 0
1.0 -110 54 0
1.0 -194 44 0
1.0 161 164 0
1.0 31 107 0
1.0 -114 -113 0
1.0 -48 181 0
1.0 78 -176 0
1.0 24 -176 0
1.0 -29 75 0
1.0 119 152 0
1.0 -116 -123 0
1.0 29 -37 0
1.0 149 -192 0
1.0 172 29 0
1.0 -5 91 0
1.0 -66 80 0
1.0 -155 159 0
1.0 -111 192 0
1.0 -115 -117 0
1.0 154 -190 0
1.0 181 -149 0
1.0 178 -99 0
1.0 189 1 0
1.0 -81 171 0
1.0 -129 66 0
1.0 58 -59 0
1.0 -176 -35 0
1.0 24 200 0
1.0 -149 -128 0
1.0 -27 159 0
1.0 159 119 0
1.0 89 19 0
1.0 84 -180 0
1.0 -38 120 0
1.0 -154 -28 0
1.0 -28 -173 0
1.0 -100 -138 0
1.0 -96 12 0
1.0 130 11 0
1.0 29 -166 0
1.0 146 -90 0
1.0 -9 -167 0
1.0 -195 139 0
1.0 -111 121 0
1.0 -58 -101 0
1.0 112 78 0
1.0 88 -100 0
1.0 66 93 0
1.0 -183 -84 0
1.0 -50 191 0
1.0 129 93 0
1.0 13 64 0
1.0 164 188 0
1.0 -65 -29 0
1.0 129 -175 0
1.0 67 99 0
1.0 183 198 0
1.0 188 -193 0
1.0 -86 142 0
1.0 -6 -7 0
1.0 195 190 0
1.0 18 -161 0
1.0 -135 82 0
1.0 180 -143 0
1.0 -141 -90 0
1.0 83 -71 0
1.0 12 2 0
1.0 -8 34 0
1.0 23 31 0
1.0 -191 -73 0
1.0 -154 -126 0
1.0 69 177 0
1.0 -67 -90 0
1.0 -160 -182 0
1.0 -184 189 0
1.0 175 194 0
1.0 -55 -79 0
1.0 66 -122 0
1.0 48 15 0
1.0 111 -69 0
1.0 -6 -40 0
1.0 -158 -132 0
1.0 -121 163 0
1.0 -156 196 0
1.0 -75 -97 0
1.0 -18 17 0
1.0 32 -190 0
1.0 -59 180 0
1.0 20 -102 0
1.0 -33 -24 0
1.0 186 -75 0
1.0 -70 -150 0
1.0 47 87 0
1.0 -104 -15 0
1.0 5 20 0
1.0 -200 17 0
1.0 -119 -180 0
1.0 -3 -114 0
1.0 -188 154 0
1.0 103 -79 0
1.0 165 86 0
1.0 100 -144 0
1.0 -164 -78 0
1.0 -95 94 0
1.0 -73 178 0
1.0 92 68 0
1.0 -21 -191 0
1.0 69 139 0
1.0 -25 -87 0
1.0 31 -102 0
1.0 -179 193 0
1.0 87 -139 0
1.0 116 49 0
1.0 116 -96 0
1.0 87 -23 0
1.0 -161 -132 0
1.0 -19 89 0
1.0 190 -136 0
1.0 129 200 0
1.0 -138 128 0
1.0 176 7 0
1.0 103 -146 0
1.0 -168 -86 0
1.0 -18 132 0
1.0 21 23 0
1.0 -158 128 0
1.0 -128 21 0
1.0 -149 -74 0
1.0 80 -178 0
1.0 -123 43 0
1.0 129 -115 0
1.0 -47 133 0
1.0 155 -67 0
1.0 -194 -56 0
1.0 -77 99 0
1.0 -172 105 0
1.0 82 164 0
1.0 7 -5 0
1.0 119 -115 0
1.0 47 62 0
1.0 -128 -109 0
1.0 164 112 0
1.0 11 -29 0
1.0 133 13 0
1.0 177 -67 0
1.0 -71 -115 0
1.0 -29 199 0
1.0 60 -187 0
1.0 -95 191 0
1.0 103 -153 0
1.0 182 -162 0
1.0 -174 -128 0
1.0 -195 148 0
1.0 62 51 0
1.0 -49 -9 0
1.0 195 42 0
1.0 -32 -6 0
1.0 158 -45 0
1.0 7 -140 0
1.0 -68 181 0
1.0 -129 -63 0
1.0 113 -181 0
1.0 190 -44 0
1.0 85 -166 0
1.0 171 -22 0
1.0 67 95 0
1.0 35 -121 0
1.0 -102 184 0
1.0 46 -90 0
1.0 -70 98 0
1.0 141 190 0
1.0 -155 -118 0
1.0 139 191 0
1.0 85 -122 0
1.0 42 -131 0
1.0 -114 -184 0
1.0 -73 -192 0
1.0 89 38 0
1.0 27 -46 0
1.0 -163 -196 0
1.0 -186 161 0
1.0 -82 -184 0
1.0 114 11 0
1.0 -194 39 0
1.0 30 -104 0
1.0 -142 -11 0
1.0 -56 3 0
1.0 -198 -56 0
1.0 16 25 0
1.0 8 -43 0
1.0 -53 87 0
1.0 -125 -134 0
1.0 38 -122 0
1.0 -133 -21 0
1.0 23 96 0
1.0 152 -125 0
1.0 149 -57 0
1.0 99 -84 0
1.0 -171 27 0
1.0 160 -111 0
1.0 -33 -122 0
1.0 -142 -123 0
1.0 -19 -158 0
1.0 -83 188 0
1.0 -44 -1 0
1.0 84 66 0
1.0 -93 92 0
1.0 3 198 0
1.0 120 25 0
1.0 148 -153 0
1.0 -111 -10 0
1.0 198 72 0
1.0 -72 -11 0
1.0 -77 -10 0
1.0 -158 -21 0
1.0 70 6 0
1.0 6 -137 0
1.0 163 -8 0
1.0 -143 60 0
1.0 84 10 0
1.0 -192 42 0
1.0 51 140 0
1.0 -161 6 0
1.0 -12 40 0
1.0 -177 -168 0
1.0 -175 -42 0
1.0 -102 -80 0
1.0 90 18 0
1.0 -59 -50 0
1.0 -190 -185 0
1.0 -191 83 0
1.0 123 107 0
1.0 75 193 0
1.0 -35 -148 0
1.0 -28 -99 0
1.0 -116 -200 0
1.0 50 147 0
1.0 -132 -3 0
1.0 -86 172 0
1.0 -78 -142 0
1.0 134 -143 0
1.0 -90 -168 0
1.0 66 -25 0
1.0 -25 31 0
1.0 -178 -41 0
1.0 44 -103 0
1.0 -74 -154 0
1.0 -96 42 0
1.0 -184 105 0
1.0 -72 -102 0
1.0 -126 -24 0
1.0 55 75 0
1.0 -116 -137 0
1.0 39 -170 0
1.0 124 23 0
1.0 64 168 0
1.0 -72 -47 0
1.0 148 112 0
1.0 136 -199 0
1.0 74 -47 0
1.0 -183 161 0
1.0 -131 34 0
1.0 57 -199 0
1.0 -166 123 0
1.0 -169 -90 0
1.0 -1 -60 0
1.0 -59 -12 0
1.0 -59 148 0
1.0 109 68 0
1.0 102 -197 0
1.0 195 -167 0
1.0 -89 46 0
1.0 -135 -177 0
1.0 37 161 0
1.0 173 199 0
1.0 146 147 0
1.0 14 -134 0
1.0 131 -186 0
1.0 152 150 0
1.0 195 -83 0
1.0 60 68 0
1.0 -28 136 0
1.0 134 17 0
1.0 -163 -102 0
1.0 36 -26 0
1.0 12 -162 0
1.0 111 -178 0
1.0 61 -98 0
1.0 165 -97 0
1.0 -33 -6 0
1.0 22 -24 0
1.0 -125 -179 0
1.0 -5 50 0
1.0 -12 -18 0
1.0 196 181 0
1.0 -78 61 0
1.0 158 -191 0
1.0 -196 28 0
1.0 51 -1 0
1.0 -179 -161 0
1.0 -10 62 0
1.0 -80 178 0
1.0 -158 170 0
1.0 31 -105 0
1.0 -95 113 0
1.0 -141 -132 0
1.0 -133 -109 0
1.0 69 103 0
1.0 165 95 0
1.0 -72 43 0
1.0 13 48 0
1.0 152 143 0
1.0 -56 -7 0
1.0 -139 45 0
1.0 -153 156 0
1.0 58 77 0
1.0 171 200 0
1.0 42 183 0
1.0 30 -137 0
1.0 80 -127 0
1.0 -133 165 0
1.0 -9 -119 0
1.0 -74 -123 0
1.0 -200 -82 0
1.0 82 -19 0
1.0 -1 84 0
1.0 21 75 0
1.0 1 -39 0
1.0 3 165 0
1.0 -84 -146 0
1.0 69 154 0
1.0 36 -43 0
1.0 61 50 0
1.0 133 -18 0
1.0 92 102 0
1.0 140 -87 0
1.0 -52 -31 0
1.0 176 126 0
1.0 -80 -182 0
1.0 25 150 0
1.0 -199 -72 0
1.0 90 -37 0
1.0 139 136 0
1.0 23 100 0
1.0 130 -174 0
1.0 -99 -101 0
1.0 83 -62 0
1.0 -11 124 0
1.0 -196 139 0
1.0 176 -23 0
1.0 -159 -141 0
1.0 41 -12 0
1.0 185 63 0
1.0 163 26 0
1.0 -87 153 0
1.0 -77 146 0
1.0 -84 46 0
1.0 -68 25 0
1.0 166 164 0
1.0 -175 -62 0
1.0 124 53 0
1.0 -78 -102 0
1.0 54 -86 0
1.0 32 -168 0
1.0 -13 160 0
1.0 -185 -147 0
1.0 -110 116 0
1.0 177 -133 0
1.0 -185 83 0
1.0 185 120 0
1.0 -6 90 0
1.0 -58 170 0
1.0 -130 -126 0
1.0 72 -59 0
1.0 174 -20 0
1.0 153 -106 0
1.0 -189 -38 0
1.0 157 -28 0
1.0 -117 -178 0
1.0 147 149 0
1.0 -75 -196 0
1.0 -54 55 0
1.0 -75 190 0
1.0 -95 28 0
1.0 65 164 0
1.0 -191 -65 0
1.0 43 -180 0
1.0 129 126 0
1.0 -121 -56 0
1.0 111 -74 0
1.0 64 -179 0
1.0 6 176 0
1.0 139 -97 0
1.0 162 73 0
1.0 -53 -119 0
1.0 -45 -58 0
1.0 -114 133 0
1.0 7 142 0
1.0 120 -21 0
1.0 -196 -69 0
1.0 165 -85 0
1.0 -157 102 0
1.0 -21 122 0
1.0 179 175 0
1.0 -107 -171 0
1.0 -112 126 0
1.0 -146 -10 0
1.0 78 150 0
1.0 -34 -141 0
1.0 -42 96 0
1.0 -17 -190 0
1.0 165 157 0
1.0 -128 5 0
1.0 131 166 0
1.0 175 25 0
1.0 174 94 0
1.0 -34 60 0
1.0 -155 -197 0
1.0 -187 -63 0
1.0 20 -55 0
1.0 -60 -5 0
1.0 170 -56 0
1.0 -80 83 0
1.0 176 90 0
1.0 149 -59 0
1.0 56 21 0
1.0 -84 -42 0
1.0 96 -13 0
1.0 -18 -36 0
1.0 -91 -9 0
1.0 92 128 0
1.0 17 -86 0
1.0 145 -160 0
1.0 181 144 0
1.0 -186 33 0
1.0 46 16 0
1.0 52 -180 0
1.0 -189 182 0
1.0 -110 -137 0
1.0 23 -24 0
1.0 -184 -161 0
1.0 104 7 0
1.0 -40 193 0
1.0 -9 5 0
1.0 185 -199 0
1.0 181 115 0
1.0 51 199 0
1.0 22 108 0
1.0 -68 -6 0
1.0 13 195 0
1.0 -188 -31 0
1.0 35 87 0
1.0 -86 58 0
1.0 -172 44 0
1.0 42 173 0
1.0 80 -135 0
